55
29
0 30 33 34 35 36 37 38 39 40 45 46 48 49 50 51 53 54
1 30 33 34 35 36 45 46 49 51 53 54
2 29 30 35 36 37 40 43 45 46 51 52 53 54
3 30 31 32 35 36 37 40 41 45 46 49 51 54
4 30 32 33 36 38 39 45 46 48 49 50 51 53
5 30 35 36 37 39 45 46 48 49 50 51 52 53 54
6 30 32 35 36 40 45 48 49 51 53
7 30 32 35 37 43 45 46 49 50 51 53 54
8 32 35 36 37 38 42 46 48 49 50 51 53 54
9 30 32 33 37 38 39 42 46 48 50 53
10 29 30 32 35 36 37 45 46 48 50
11 31 32 34 36 37 40 42 46 49 53
12 32 33 34 35 42 45 48 51 54
13 30 34 35 36 38 41 43 46 48 49 50 51 54
14 30 32 33 35 36 37 40 42 45 46 48 49 54
15 30 34 37 42 44 46 49 50 53
16 29 35 37 38 42 45 46 51
17 29 30 32 35 37 40 41
18 29 30 36 45 46 49 50 51 54
19 34 36 38 45 46 48 52 53 54
20 30 37 38 43 54
21 30 43 45 49 50 53
22 32 35 38 47
23 35 39 44
24 29 39 42 46 52
25 29 31 47 48
26 30
27 34 42
28 43 44
